set i := 1 2 3 4; 
set j := 1 2 3 4; 

      
param n:= 4 ;

param d:=
    1 1  100 
    1 2  2
    1 3  100 
    1 4  100 
    2 1  100 
    2 2  100 
    2 3  3
    2 4  100 
    3 1  100 
    3 2  100 
    3 3  100 
    3 4  4
    4 1  5
    4 2  100 
    4 3  100 
    4 4  100  ;